(set-info :smt-lib-version 2.6)
(set-logic QF_NIA)
(set-info :source |
     Constraint systems stating that a matrix interpretation is
     compatible with a rewriting system (weakly compatible with
     all rules, strictly compatible with at least one).

     Contributed by Johannes Waldmann at HTKW Leipzig.
   |)
(set-info :category "crafted")
(set-info :status sat)
(declare-fun n0 () Int)
(assert (>= n0 0))
(declare-fun n1 () Int)
(assert (>= n1 0))
(declare-fun n2 () Int)
(assert (>= n2 0))
(declare-fun n3 () Int)
(assert (>= n3 0))
(declare-fun n4 () Int)
(assert (>= n4 0))
(declare-fun n5 () Int)
(assert (>= n5 0))
(declare-fun n6 () Int)
(assert (>= n6 0))
(declare-fun n7 () Int)
(assert (>= n7 0))
(declare-fun n8 () Int)
(assert (= n8 (* n5 n6)))
(declare-fun n9 () Int)
(assert (= n9 (+ n4 n8)))
(declare-fun n10 () Int)
(assert (= n10 (* n5 n7)))
(declare-fun n11 () Int)
(assert (= n11 (* n7 n6)))
(declare-fun n12 () Int)
(assert (= n12 (+ n6 n11)))
(declare-fun n13 () Int)
(assert (= n13 (* n7 n7)))
(declare-fun n14 () Int)
(assert (= n14 (* n5 n4)))
(declare-fun n15 () Int)
(assert (= n15 (+ n4 n14)))
(declare-fun n16 () Int)
(assert (= n16 (* n5 n5)))
(declare-fun n17 () Int)
(assert (= n17 (* n10 n4)))
(declare-fun n18 () Int)
(assert (= n18 (+ n9 n17)))
(declare-fun n19 () Int)
(assert (= n19 (* n10 n5)))
(declare-fun n20 () Int)
(assert (= n20 (* n10 n6)))
(declare-fun n21 () Int)
(assert (= n21 (+ n9 n20)))
(declare-fun n22 () Int)
(assert (= n22 (* n10 n7)))
(declare-fun n23 () Int)
(assert (= n23 (* n1 n12)))
(declare-fun n24 () Int)
(assert (= n24 (+ n0 n23)))
(declare-fun n25 () Int)
(assert (= n25 (* n1 n13)))
(declare-fun n26 () Int)
(assert (= n26 (* n1 n6)))
(declare-fun n27 () Int)
(assert (= n27 (+ n0 n26)))
(declare-fun n28 () Int)
(assert (= n28 (* n1 n7)))
(declare-fun n29 () Int)
(assert (= n29 (* n16 n4)))
(declare-fun n30 () Int)
(assert (= n30 (+ n15 n29)))
(declare-fun n31 () Int)
(assert (= n31 (* n16 n5)))
(declare-fun n32 () Int)
(assert (= n32 (* n1 n4)))
(declare-fun n33 () Int)
(assert (= n33 (+ n0 n32)))
(declare-fun n34 () Int)
(assert (= n34 (* n1 n5)))
(declare-fun n35 () Int)
(assert (= n35 (* n10 n30)))
(declare-fun n36 () Int)
(assert (= n36 (+ n9 n35)))
(declare-fun n37 () Int)
(assert (= n37 (* n10 n31)))
(declare-fun n38 () Int)
(assert (= n38 (* n19 n9)))
(declare-fun n39 () Int)
(assert (= n39 (+ n18 n38)))
(declare-fun n40 () Int)
(assert (= n40 (* n19 n10)))
(declare-fun n41 () Int)
(assert (= n41 (* n28 n18)))
(declare-fun n42 () Int)
(assert (= n42 (+ n27 n41)))
(declare-fun n43 () Int)
(assert (= n43 (* n28 n19)))
(declare-fun n44 () Int)
(assert (= n44 (* n34 n18)))
(declare-fun n45 () Int)
(assert (= n45 (+ n33 n44)))
(declare-fun n46 () Int)
(assert (= n46 (* n34 n19)))
(declare-fun n47 () Int)
(assert (= n47 (* n10 n12)))
(declare-fun n48 () Int)
(assert (= n48 (+ n9 n47)))
(declare-fun n49 () Int)
(assert (= n49 (* n10 n13)))
(declare-fun n50 () Int)
(assert (= n50 (* n10 n36)))
(declare-fun n51 () Int)
(assert (= n51 (+ n9 n50)))
(declare-fun n52 () Int)
(assert (= n52 (* n10 n37)))
(declare-fun n53 () Int)
(assert (= n53 (* n22 n9)))
(declare-fun n54 () Int)
(assert (= n54 (+ n21 n53)))
(declare-fun n55 () Int)
(assert (= n55 (* n22 n10)))
(declare-fun n56 () Int)
(assert (= n56 (* n22 n39)))
(declare-fun n57 () Int)
(assert (= n57 (+ n21 n56)))
(declare-fun n58 () Int)
(assert (= n58 (* n22 n40)))
(declare-fun n59 () Int)
(assert (= n59 (* n5 n9)))
(declare-fun n60 () Int)
(assert (= n60 (+ n4 n59)))
(declare-fun n61 () Int)
(assert (= n61 (* n5 n10)))
(declare-fun n62 () Int)
(assert (= n62 (* n7 n21)))
(declare-fun n63 () Int)
(assert (= n63 (+ n6 n62)))
(declare-fun n64 () Int)
(assert (= n64 (* n7 n22)))
(declare-fun n65 () Int)
(assert (= n65 (* n7 n60)))
(declare-fun n66 () Int)
(assert (= n66 (+ n6 n65)))
(declare-fun n67 () Int)
(assert (= n67 (* n7 n61)))
(declare-fun n68 () Int)
(assert (= n68 (* n13 n6)))
(declare-fun n69 () Int)
(assert (= n69 (+ n12 n68)))
(declare-fun n70 () Int)
(assert (= n70 (* n13 n7)))
(declare-fun n71 () Int)
(assert (= n71 (* n13 n12)))
(declare-fun n72 () Int)
(assert (= n72 (+ n12 n71)))
(declare-fun n73 () Int)
(assert (= n73 (* n13 n13)))
(declare-fun n74 () Int)
(assert (= n74 (* n25 n6)))
(declare-fun n75 () Int)
(assert (= n75 (+ n24 n74)))
(declare-fun n76 () Int)
(assert (= n76 (* n25 n7)))
(declare-fun n77 () Int)
(assert (= n77 (* n67 n21)))
(declare-fun n78 () Int)
(assert (= n78 (+ n66 n77)))
(declare-fun n79 () Int)
(assert (= n79 (* n67 n22)))
(declare-fun n80 () Int)
(assert (= n80 (* n73 n48)))
(declare-fun n81 () Int)
(assert (= n81 (+ n72 n80)))
(declare-fun n82 () Int)
(assert (= n82 (* n73 n49)))
(declare-fun n83 () Int)
(assert (= n83 (* n1 n15)))
(declare-fun n84 () Int)
(assert (= n84 (+ n0 n83)))
(declare-fun n85 () Int)
(assert (= n85 (* n1 n16)))
(declare-fun n86 () Int)
(assert (= n86 (* n28 n4)))
(declare-fun n87 () Int)
(assert (= n87 (+ n27 n86)))
(declare-fun n88 () Int)
(assert (= n88 (* n28 n5)))
(assert (>= n87 n24))
(assert (>= n88 n25))
(declare-fun n89 () Int)
(assert (= n89 (* n25 n4)))
(declare-fun n90 () Int)
(assert (= n90 (+ n24 n89)))
(declare-fun n91 () Int)
(assert (= n91 (* n25 n5)))
(assert (>= n90 n75))
(assert (>= n91 n76))
(declare-fun n92 () Int)
(assert (= n92 (* n85 n15)))
(declare-fun n93 () Int)
(assert (= n93 (+ n84 n92)))
(declare-fun n94 () Int)
(assert (= n94 (* n85 n16)))
(declare-fun n95 () Int)
(assert (= n95 (* n34 n51)))
(declare-fun n96 () Int)
(assert (= n96 (+ n33 n95)))
(declare-fun n97 () Int)
(assert (= n97 (* n34 n52)))
(assert (>= n93 n96))
(assert (>= n94 n97))
(declare-fun n98 () Int)
(assert (= n98 (* n1 n57)))
(declare-fun n99 () Int)
(assert (= n99 (+ n0 n98)))
(declare-fun n100 () Int)
(assert (= n100 (* n1 n58)))
(assert (>= n45 n99))
(assert (>= n46 n100))
(declare-fun n101 () Int)
(assert (= n101 (* n25 n39)))
(declare-fun n102 () Int)
(assert (= n102 (+ n24 n101)))
(declare-fun n103 () Int)
(assert (= n103 (* n25 n40)))
(assert (>= n45 n102))
(assert (>= n46 n103))
(declare-fun n104 () Int)
(assert (= n104 (* n28 n60)))
(declare-fun n105 () Int)
(assert (= n105 (+ n27 n104)))
(declare-fun n106 () Int)
(assert (= n106 (* n28 n61)))
(assert (>= n45 n105))
(assert (>= n46 n106))
(declare-fun n107 () Int)
(assert (= n107 (* n25 n54)))
(declare-fun n108 () Int)
(assert (= n108 (+ n24 n107)))
(declare-fun n109 () Int)
(assert (= n109 (* n25 n55)))
(assert (>= n42 n108))
(assert (>= n43 n109))
(declare-fun n110 () Int)
(assert (= n110 (* n25 n9)))
(declare-fun n111 () Int)
(assert (= n111 (+ n24 n110)))
(declare-fun n112 () Int)
(assert (= n112 (* n25 n10)))
(assert (>= n42 n111))
(assert (>= n43 n112))
(assert (>= n42 n27))
(assert (>= n43 n28))
(declare-fun n113 () Int)
(assert (= n113 (* n76 n4)))
(declare-fun n114 () Int)
(assert (= n114 (+ n75 n113)))
(declare-fun n115 () Int)
(assert (= n115 (* n76 n5)))
(declare-fun n116 () Int)
(assert (= n116 (* n25 n12)))
(declare-fun n117 () Int)
(assert (= n117 (+ n24 n116)))
(declare-fun n118 () Int)
(assert (= n118 (* n25 n13)))
(assert (>= n114 n117))
(assert (>= n115 n118))
(declare-fun n119 () Int)
(assert (= n119 (* n13 n21)))
(declare-fun n120 () Int)
(assert (= n120 (+ n12 n119)))
(declare-fun n121 () Int)
(assert (= n121 (* n13 n22)))
(assert (>= n18 n120))
(assert (>= n19 n121))
(declare-fun n122 () Int)
(assert (= n122 (* n22 n4)))
(declare-fun n123 () Int)
(assert (= n123 (+ n21 n122)))
(declare-fun n124 () Int)
(assert (= n124 (* n22 n5)))
(declare-fun n125 () Int)
(assert (= n125 (* n70 n48)))
(declare-fun n126 () Int)
(assert (= n126 (+ n69 n125)))
(declare-fun n127 () Int)
(assert (= n127 (* n70 n49)))
(assert (>= n123 n126))
(assert (>= n124 n127))
(declare-fun n128 () Int)
(assert (= n128 (* n16 n30)))
(declare-fun n129 () Int)
(assert (= n129 (+ n15 n128)))
(declare-fun n130 () Int)
(assert (= n130 (* n16 n31)))
(declare-fun n131 () Int)
(assert (= n131 (* n16 n51)))
(declare-fun n132 () Int)
(assert (= n132 (+ n15 n131)))
(declare-fun n133 () Int)
(assert (= n133 (* n16 n52)))
(assert (>= n129 n132))
(assert (>= n130 n133))
(declare-fun n134 () Int)
(assert (= n134 (* n16 n18)))
(declare-fun n135 () Int)
(assert (= n135 (+ n15 n134)))
(declare-fun n136 () Int)
(assert (= n136 (* n16 n19)))
(declare-fun n137 () Int)
(assert (= n137 (* n5 n57)))
(declare-fun n138 () Int)
(assert (= n138 (+ n4 n137)))
(declare-fun n139 () Int)
(assert (= n139 (* n5 n58)))
(assert (>= n135 n138))
(assert (>= n136 n139))
(declare-fun n140 () Int)
(assert (= n140 (* n79 n15)))
(declare-fun n141 () Int)
(assert (= n141 (+ n78 n140)))
(declare-fun n142 () Int)
(assert (= n142 (* n79 n16)))
(assert (>= n36 n141))
(assert (>= n37 n142))
(declare-fun n143 () Int)
(assert (= n143 (* n10 n18)))
(declare-fun n144 () Int)
(assert (= n144 (+ n9 n143)))
(declare-fun n145 () Int)
(assert (= n145 (* n10 n19)))
(declare-fun n146 () Int)
(assert (= n146 (* n64 n54)))
(declare-fun n147 () Int)
(assert (= n147 (+ n63 n146)))
(declare-fun n148 () Int)
(assert (= n148 (* n64 n55)))
(assert (>= n144 n147))
(assert (>= n145 n148))
(declare-fun n149 () Int)
(assert (= n149 (* n49 n4)))
(declare-fun n150 () Int)
(assert (= n150 (+ n48 n149)))
(declare-fun n151 () Int)
(assert (= n151 (* n49 n5)))
(declare-fun n152 () Int)
(assert (= n152 (* n82 n6)))
(declare-fun n153 () Int)
(assert (= n153 (+ n81 n152)))
(declare-fun n154 () Int)
(assert (= n154 (* n82 n7)))
(assert (>= n150 n153))
(assert (>= n151 n154))
(assert (or (> n87 n24) (> n90 n75) (> n93 n96) (> n45 n99) (> n45 n102) (> n45 n105) (> n42 n108) (> n42 n111) (> n42 n27) (> n114 n117)))
(assert (<= n0 100))
(assert (<= n1 100))
(assert (<= 0 n10))
(assert (<= n10 100))
(assert (<= 0 n100))
(assert (<= n100 100))
(assert (<= 0 n101))
(assert (<= n101 100))
(assert (<= 0 n102))
(assert (<= n102 100))
(assert (<= 0 n103))
(assert (<= n103 100))
(assert (<= 0 n104))
(assert (<= n104 100))
(assert (<= 0 n105))
(assert (<= n105 100))
(assert (<= 0 n106))
(assert (<= n106 100))
(assert (<= 0 n107))
(assert (<= n107 100))
(assert (<= 0 n108))
(assert (<= n108 100))
(assert (<= 0 n109))
(assert (<= n109 100))
(assert (<= 0 n11))
(assert (<= n11 100))
(assert (<= 0 n110))
(assert (<= n110 100))
(assert (<= 0 n111))
(assert (<= n111 100))
(assert (<= 0 n112))
(assert (<= n112 100))
(assert (<= 0 n113))
(assert (<= n113 100))
(assert (<= 0 n114))
(assert (<= n114 100))
(assert (<= 0 n115))
(assert (<= n115 100))
(assert (<= 0 n116))
(assert (<= n116 100))
(assert (<= 0 n117))
(assert (<= n117 100))
(assert (<= 0 n118))
(assert (<= n118 100))
(assert (<= 0 n119))
(assert (<= n119 100))
(assert (<= 0 n12))
(assert (<= n12 100))
(assert (<= 0 n120))
(assert (<= n120 100))
(assert (<= 0 n121))
(assert (<= n121 100))
(assert (<= 0 n122))
(assert (<= n122 100))
(assert (<= 0 n123))
(assert (<= n123 100))
(assert (<= 0 n124))
(assert (<= n124 100))
(assert (<= 0 n125))
(assert (<= n125 100))
(assert (<= 0 n126))
(assert (<= n126 100))
(assert (<= 0 n127))
(assert (<= n127 100))
(assert (<= 0 n128))
(assert (<= n128 100))
(assert (<= 0 n129))
(assert (<= n129 100))
(assert (<= 0 n13))
(assert (<= n13 100))
(assert (<= 0 n130))
(assert (<= n130 100))
(assert (<= 0 n131))
(assert (<= n131 100))
(assert (<= 0 n132))
(assert (<= n132 100))
(assert (<= 0 n133))
(assert (<= n133 100))
(assert (<= 0 n134))
(assert (<= n134 100))
(assert (<= 0 n135))
(assert (<= n135 100))
(assert (<= 0 n136))
(assert (<= n136 100))
(assert (<= 0 n137))
(assert (<= n137 100))
(assert (<= 0 n138))
(assert (<= n138 100))
(assert (<= 0 n139))
(assert (<= n139 100))
(assert (<= 0 n14))
(assert (<= n14 100))
(assert (<= 0 n140))
(assert (<= n140 100))
(assert (<= 0 n141))
(assert (<= n141 100))
(assert (<= 0 n142))
(assert (<= n142 100))
(assert (<= 0 n143))
(assert (<= n143 100))
(assert (<= 0 n144))
(assert (<= n144 100))
(assert (<= 0 n145))
(assert (<= n145 100))
(assert (<= 0 n146))
(assert (<= n146 100))
(assert (<= 0 n147))
(assert (<= n147 100))
(assert (<= 0 n148))
(assert (<= n148 100))
(assert (<= 0 n149))
(assert (<= n149 100))
(assert (<= 0 n15))
(assert (<= n15 100))
(assert (<= 0 n150))
(assert (<= n150 100))
(assert (<= 0 n151))
(assert (<= n151 100))
(assert (<= 0 n152))
(assert (<= n152 100))
(assert (<= 0 n153))
(assert (<= n153 100))
(assert (<= 0 n154))
(assert (<= n154 100))
(assert (<= 0 n16))
(assert (<= n16 100))
(assert (<= 0 n17))
(assert (<= n17 100))
(assert (<= 0 n18))
(assert (<= n18 100))
(assert (<= 0 n19))
(assert (<= n19 100))
(assert (<= n2 100))
(assert (<= 0 n20))
(assert (<= n20 100))
(assert (<= 0 n21))
(assert (<= n21 100))
(assert (<= 0 n22))
(assert (<= n22 100))
(assert (<= 0 n23))
(assert (<= n23 100))
(assert (<= 0 n24))
(assert (<= n24 100))
(assert (<= 0 n25))
(assert (<= n25 100))
(assert (<= 0 n26))
(assert (<= n26 100))
(assert (<= 0 n27))
(assert (<= n27 100))
(assert (<= 0 n28))
(assert (<= n28 100))
(assert (<= 0 n29))
(assert (<= n29 100))
(assert (<= n3 100))
(assert (<= 0 n30))
(assert (<= n30 100))
(assert (<= 0 n31))
(assert (<= n31 100))
(assert (<= 0 n32))
(assert (<= n32 100))
(assert (<= 0 n33))
(assert (<= n33 100))
(assert (<= 0 n34))
(assert (<= n34 100))
(assert (<= 0 n35))
(assert (<= n35 100))
(assert (<= 0 n36))
(assert (<= n36 100))
(assert (<= 0 n37))
(assert (<= n37 100))
(assert (<= 0 n38))
(assert (<= n38 100))
(assert (<= 0 n39))
(assert (<= n39 100))
(assert (<= n4 100))
(assert (<= 0 n40))
(assert (<= n40 100))
(assert (<= 0 n41))
(assert (<= n41 100))
(assert (<= 0 n42))
(assert (<= n42 100))
(assert (<= 0 n43))
(assert (<= n43 100))
(assert (<= 0 n44))
(assert (<= n44 100))
(assert (<= 0 n45))
(assert (<= n45 100))
(assert (<= 0 n46))
(assert (<= n46 100))
(assert (<= 0 n47))
(assert (<= n47 100))
(assert (<= 0 n48))
(assert (<= n48 100))
(assert (<= 0 n49))
(assert (<= n49 100))
(assert (<= n5 100))
(assert (<= 0 n50))
(assert (<= n50 100))
(assert (<= 0 n51))
(assert (<= n51 100))
(assert (<= 0 n52))
(assert (<= n52 100))
(assert (<= 0 n53))
(assert (<= n53 100))
(assert (<= 0 n54))
(assert (<= n54 100))
(assert (<= 0 n55))
(assert (<= n55 100))
(assert (<= 0 n56))
(assert (<= n56 100))
(assert (<= 0 n57))
(assert (<= n57 100))
(assert (<= 0 n58))
(assert (<= n58 100))
(assert (<= 0 n59))
(assert (<= n59 100))
(assert (<= n6 100))
(assert (<= 0 n60))
(assert (<= n60 100))
(assert (<= 0 n61))
(assert (<= n61 100))
(assert (<= 0 n62))
(assert (<= n62 100))
(assert (<= 0 n63))
(assert (<= n63 100))
(assert (<= 0 n64))
(assert (<= n64 100))
(assert (<= 0 n65))
(assert (<= n65 100))
(assert (<= 0 n66))
(assert (<= n66 100))
(assert (<= 0 n67))
(assert (<= n67 100))
(assert (<= 0 n68))
(assert (<= n68 100))
(assert (<= 0 n69))
(assert (<= n69 100))
(assert (<= n7 100))
(assert (<= 0 n70))
(assert (<= n70 100))
(assert (<= 0 n71))
(assert (<= n71 100))
(assert (<= 0 n72))
(assert (<= n72 100))
(assert (<= 0 n73))
(assert (<= n73 100))
(assert (<= 0 n74))
(assert (<= n74 100))
(assert (<= 0 n75))
(assert (<= n75 100))
(assert (<= 0 n76))
(assert (<= n76 100))
(assert (<= 0 n77))
(assert (<= n77 100))
(assert (<= 0 n78))
(assert (<= n78 100))
(assert (<= 0 n79))
(assert (<= n79 100))
(assert (<= 0 n8))
(assert (<= n8 100))
(assert (<= 0 n80))
(assert (<= n80 100))
(assert (<= 0 n81))
(assert (<= n81 100))
(assert (<= 0 n82))
(assert (<= n82 100))
(assert (<= 0 n83))
(assert (<= n83 100))
(assert (<= 0 n84))
(assert (<= n84 100))
(assert (<= 0 n85))
(assert (<= n85 100))
(assert (<= 0 n86))
(assert (<= n86 100))
(assert (<= 0 n87))
(assert (<= n87 100))
(assert (<= 0 n88))
(assert (<= n88 100))
(assert (<= 0 n89))
(assert (<= n89 100))
(assert (<= 0 n9))
(assert (<= n9 100))
(assert (<= 0 n90))
(assert (<= n90 100))
(assert (<= 0 n91))
(assert (<= n91 100))
(assert (<= 0 n92))
(assert (<= n92 100))
(assert (<= 0 n93))
(assert (<= n93 100))
(assert (<= 0 n94))
(assert (<= n94 100))
(assert (<= 0 n95))
(assert (<= n95 100))
(assert (<= 0 n96))
(assert (<= n96 100))
(assert (<= 0 n97))
(assert (<= n97 100))
(assert (<= 0 n98))
(assert (<= n98 100))
(assert (<= 0 n99))
(assert (<= n99 100))
(check-sat)
(exit)
